<?xml version = "1.0" encoding="UTF-8" standalone="yes"?>
<CPLEXSolution version="1.2">
 <header
   problemName="IloCplex"
   solutionName="p0"
   solutionIndex="-1"
   objectiveValue="259539088"
   solutionTypeValue="3"
   solutionTypeString="primal"
   solutionStatusValue="127"
   solutionStatusString="integer feasible solution"
   solutionMethodString="mip"
   primalFeasible="0"
   dualFeasible="0"
   writeLevel="3"/>
 <quality
   epInt="1.0000000000000001e-05"
   epRHS="9.9999999999999995e-07"
   maxIntInfeas="0"
   maxPrimalInfeas="0"
   maxX="1"
   maxSlack="1"/>
 <variables>
  <variable name="w3_3" index="48" value="1"/>
  <variable name="w3_13" index="58" value="1"/>
  <variable name="w7_3" index="108" value="1"/>
  <variable name="w7_13" index="118" value="1"/>
  <variable name="w8_3" index="123" value="1"/>
  <variable name="w8_13" index="133" value="1"/>
  <variable name="w10_3" index="153" value="1"/>
  <variable name="w10_13" index="163" value="1"/>
  <variable name="w12_3" index="183" value="1"/>
  <variable name="w12_13" index="193" value="1"/>
  <variable name="w13_3" index="198" value="1"/>
  <variable name="w13_13" index="208" value="1"/>
  <variable name="w14_3" index="213" value="1"/>
  <variable name="w14_13" index="223" value="1"/>
  <variable name="k3" index="303" value="1"/>
  <variable name="k7" index="307" value="1"/>
  <variable name="k8" index="308" value="1"/>
  <variable name="k10" index="310" value="1"/>
  <variable name="k12" index="312" value="1"/>
  <variable name="k13" index="313" value="1"/>
  <variable name="k14" index="314" value="1"/>
  <variable name="x0_1" index="321" value="1"/>
  <variable name="x1_0" index="470" value="1"/>
  <variable name="x2_2" index="622" value="1"/>
  <variable name="x3_3" index="773" value="1"/>
  <variable name="x4_4" index="924" value="1"/>
  <variable name="x5_5" index="1075" value="1"/>
  <variable name="x6_6" index="1226" value="1"/>
  <variable name="x7_7" index="1377" value="1"/>
  <variable name="x8_8" index="1528" value="1"/>
  <variable name="x9_9" index="1679" value="1"/>
  <variable name="x10_10" index="1830" value="1"/>
  <variable name="x11_11" index="1981" value="1"/>
  <variable name="x12_12" index="2132" value="1"/>
  <variable name="x13_13" index="2283" value="1"/>
  <variable name="x14_14" index="2434" value="1"/>
  <variable name="x15_15" index="2585" value="1"/>
  <variable name="x16_16" index="2736" value="1"/>
  <variable name="x17_17" index="2887" value="1"/>
  <variable name="x18_18" index="3038" value="1"/>
  <variable name="x19_19" index="3189" value="1"/>
  <variable name="x20_20" index="3340" value="1"/>
  <variable name="x21_21" index="3491" value="1"/>
  <variable name="x22_22" index="3642" value="1"/>
  <variable name="x23_23" index="3793" value="1"/>
  <variable name="x24_24" index="3944" value="1"/>
  <variable name="x25_25" index="4095" value="1"/>
  <variable name="x26_26" index="4246" value="1"/>
  <variable name="x27_27" index="4397" value="1"/>
  <variable name="x28_28" index="4548" value="1"/>
  <variable name="x29_29" index="4699" value="1"/>
  <variable name="x30_30" index="4850" value="1"/>
  <variable name="x31_31" index="5001" value="1"/>
  <variable name="x32_32" index="5152" value="1"/>
  <variable name="x33_33" index="5303" value="1"/>
  <variable name="x34_34" index="5454" value="1"/>
  <variable name="x35_35" index="5605" value="1"/>
  <variable name="x36_36" index="5756" value="1"/>
  <variable name="x37_37" index="5907" value="1"/>
  <variable name="x38_38" index="6058" value="1"/>
  <variable name="x39_39" index="6209" value="1"/>
  <variable name="x40_40" index="6360" value="1"/>
  <variable name="x41_41" index="6511" value="1"/>
  <variable name="x42_42" index="6662" value="1"/>
  <variable name="x43_43" index="6813" value="1"/>
  <variable name="x44_44" index="6964" value="1"/>
  <variable name="x45_45" index="7115" value="1"/>
  <variable name="x46_46" index="7266" value="1"/>
  <variable name="x47_47" index="7417" value="1"/>
  <variable name="x48_48" index="7568" value="1"/>
  <variable name="x49_49" index="7719" value="1"/>
  <variable name="x50_50" index="7870" value="1"/>
  <variable name="x51_51" index="8021" value="1"/>
  <variable name="x52_52" index="8172" value="1"/>
  <variable name="x53_53" index="8323" value="1"/>
  <variable name="x54_54" index="8474" value="1"/>
  <variable name="x55_55" index="8625" value="1"/>
  <variable name="x56_56" index="8776" value="1"/>
  <variable name="x57_57" index="8927" value="1"/>
  <variable name="x58_58" index="9078" value="1"/>
  <variable name="x59_59" index="9229" value="1"/>
  <variable name="x60_60" index="9380" value="1"/>
  <variable name="x61_61" index="9531" value="1"/>
  <variable name="x62_62" index="9682" value="1"/>
  <variable name="x63_63" index="9833" value="1"/>
  <variable name="x64_64" index="9984" value="1"/>
  <variable name="x65_65" index="10135" value="1"/>
  <variable name="x66_66" index="10286" value="1"/>
  <variable name="x67_67" index="10437" value="1"/>
  <variable name="x68_68" index="10588" value="1"/>
  <variable name="x69_69" index="10739" value="1"/>
  <variable name="x70_70" index="10890" value="1"/>
  <variable name="x71_71" index="11041" value="1"/>
  <variable name="x72_72" index="11192" value="1"/>
  <variable name="x73_73" index="11343" value="1"/>
  <variable name="x74_74" index="11494" value="1"/>
  <variable name="x75_121" index="11691" value="1"/>
  <variable name="x76_83" index="11803" value="1"/>
  <variable name="x77_90" index="11960" value="1"/>
  <variable name="x78_81" index="12101" value="1"/>
  <variable name="x79_89" index="12259" value="1"/>
  <variable name="x80_142" index="12462" value="1"/>
  <variable name="x81_79" index="12549" value="1"/>
  <variable name="x82_78" index="12698" value="1"/>
  <variable name="x83_92" index="12862" value="1"/>
  <variable name="x84_82" index="13002" value="1"/>
  <variable name="x85_144" index="13214" value="1"/>
  <variable name="x86_75" index="13295" value="1"/>
  <variable name="x87_123" index="13493" value="1"/>
  <variable name="x88_140" index="13660" value="1"/>
  <variable name="x89_85" index="13755" value="1"/>
  <variable name="x90_109" index="13929" value="1"/>
  <variable name="x91_80" index="14050" value="1"/>
  <variable name="x92_116" index="14236" value="1"/>
  <variable name="x93_127" index="14397" value="1"/>
  <variable name="x94_77" index="14497" value="1"/>
  <variable name="x95_103" index="14673" value="1"/>
  <variable name="x96_76" index="14796" value="1"/>
  <variable name="x97_98" index="14968" value="1"/>
  <variable name="x98_99" index="15119" value="1"/>
  <variable name="x99_139" index="15309" value="1"/>
  <variable name="x100_101" index="15421" value="1"/>
  <variable name="x101_112" index="15582" value="1"/>
  <variable name="x102_130" index="15750" value="1"/>
  <variable name="x103_102" index="15872" value="1"/>
  <variable name="x104_118" index="16038" value="1"/>
  <variable name="x105_84" index="16154" value="1"/>
  <variable name="x106_110" index="16330" value="1"/>
  <variable name="x107_119" index="16489" value="1"/>
  <variable name="x108_104" index="16624" value="1"/>
  <variable name="x109_126" index="16796" value="1"/>
  <variable name="x110_106" index="16926" value="1"/>
  <variable name="x111_132" index="17102" value="1"/>
  <variable name="x112_105" index="17225" value="1"/>
  <variable name="x113_96" index="17366" value="1"/>
  <variable name="x114_147" index="17567" value="1"/>
  <variable name="x115_93" index="17663" value="1"/>
  <variable name="x116_114" index="17834" value="1"/>
  <variable name="x117_108" index="17978" value="1"/>
  <variable name="x118_117" index="18137" value="1"/>
  <variable name="x119_111" index="18281" value="1"/>
  <variable name="x120_131" index="18451" value="1"/>
  <variable name="x121_124" index="18594" value="1"/>
  <variable name="x122_87" index="18707" value="1"/>
  <variable name="x123_128" index="18898" value="1"/>
  <variable name="x124_113" index="19033" value="1"/>
  <variable name="x125_129" index="19199" value="1"/>
  <variable name="x126_143" index="19363" value="1"/>
  <variable name="x127_88" index="19458" value="1"/>
  <variable name="x128_95" index="19615" value="1"/>
  <variable name="x129_148" index="19818" value="1"/>
  <variable name="x130_133" index="19953" value="1"/>
  <variable name="x131_135" index="20105" value="1"/>
  <variable name="x132_97" index="20217" value="1"/>
  <variable name="x133_138" index="20408" value="1"/>
  <variable name="x134_122" index="20542" value="1"/>
  <variable name="x135_137" index="20707" value="1"/>
  <variable name="x136_146" index="20866" value="1"/>
  <variable name="x137_125" index="20995" value="1"/>
  <variable name="x138_107" index="21127" value="1"/>
  <variable name="x139_94" index="21264" value="1"/>
  <variable name="x140_100" index="21420" value="1"/>
  <variable name="x141_91" index="21561" value="1"/>
  <variable name="x142_115" index="21735" value="1"/>
  <variable name="x143_86" index="21856" value="1"/>
  <variable name="x144_145" index="22065" value="1"/>
  <variable name="x145_149" index="22219" value="1"/>
  <variable name="x146_134" index="22354" value="1"/>
  <variable name="x147_141" index="22511" value="1"/>
  <variable name="x148_136" index="22656" value="1"/>
  <variable name="x149_120" index="22790" value="1"/>
  <variable name="u3" index="22823" value="1"/>
  <variable name="u13" index="22833" value="1"/>
 </variables>
</CPLEXSolution>
